(set-logic ALL)
(declare-const k Int)
(declare-fun s () (_ BitVec k))
(declare-fun t () (_ BitVec k))
(assert (distinct (bvudiv s (bvlshr s (bvudiv (_ bv1 k) s))) (bvudiv s (bvand s (bvnot (_ bv1 k))))))
(check-sat)
